
Minimize
 \\ 3 t0pt + 1 t1
t0  +0.316 d0 
ST
0 d0 + 0 d1 + 0 d1p + 0 d2p + 1 d2 < 6.2831853071795864769252867666
d2 > 1.32
d1 > 1.153
d1p = 1.153
d2p = 1.32
d0 > 0

\\ d0 = 1.75

0.05537364566846414 t0pt - t0 = 0
0.05537364566846414 t1pt - t1 = 0


B1: -t0 - 0.3897 d0 < - 0.4666
B2: -t0 - 0.2993 d0 < - 0.3683
B3: -t0 < 0
B4: -t0 + 0.1689 d0 < 0.208
B5: -t0 + 0.2529 d0 < 0.3442

E1: -t1 - 4.49461 d1 < -0.581446 
E2: -t1 - 2.1406 d1 < -2.955 
E3: -t1 - 0.316 d1 < -0.6438
E4: -t1 < -0.1317
E5: -t1 + 0.2365 d1 < 0.3825
E6: -t1 + 0.4747 d1 < 1.071



BOUNDS

t0 free

END
